
Gurobi 13.0.0 (mac64[arm]) logging started Tue Nov 18 10:05:30 2025

Set parameter LogFile to value "/Users/jjung404/PyProjects/qiga/data/steiner-opt/SP/design432_log.txt"
Gurobi Optimizer version 13.0.0 build v13.0.0rc1 (mac64[arm] - Darwin 24.6.0 24G231)

CPU model: Apple M3
Thread count: 8 physical cores, 8 logical processors, using up to 8 threads

Optimize a model with 4 rows, 20 columns and 20 nonzeros (Min)
Model fingerprint: 0xd5c954b3
Model has 20 linear objective coefficients
Variable types: 0 continuous, 20 integer (20 binary)
Coefficient statistics:
  Matrix range     [1e+00, 1e+00]
  Objective range  [1e+00, 3e+00]
  Bounds range     [1e+00, 1e+00]
  RHS range        [1e+00, 1e+00]
Found heuristic solution: objective 8.0000000
Presolve removed 0 rows and 12 columns
Presolve time: 0.00s
Presolved: 4 rows, 8 columns, 12 nonzeros
Variable types: 0 continuous, 8 integer (8 binary)

Root relaxation: objective 6.000000e+00, 5 iterations, 0.00 seconds (0.00 work units)

    Nodes    |    Current Node    |     Objective Bounds      |     Work
 Expl Unexpl |  Obj  Depth IntInf | Incumbent    BestBd   Gap | It/Node Time

*    0     0               0       6.0000000    6.00000  0.00%     -    0s

Explored 1 nodes (5 simplex iterations) in 0.01 seconds (0.00 work units)
Thread count was 8 (of 8 available processors)

Solution count 2: 6 8 

Optimal solution found (tolerance 1.00e-04)
Best objective 6.000000000000e+00, best bound 6.000000000000e+00, gap 0.0000%
